(set-logic LIA)
(declare-var c Int)
(declare-var n Int)
(declare-var v1 Int)
(declare-var v2 Int)
(declare-var v3 Int)
(declare-var c! Int)
(declare-var n! Int)
(declare-var v1! Int)
(declare-var v2! Int)
(declare-var v3! Int)
(synth-fun inv-f((parameter0 Int)(parameter1 Int)(parameter2 Int)(parameter3 Int)(parameter4 Int))Bool) 
(constraint (=> (and (= c 0) (> n 0) )(inv-f c n v1 v2 v3 )))
(constraint (=> (and (inv-f c n v1 v2 v3 ) (or (and (not (= c n)) (= c! (+ c 1 )) ) (and (= c n) (= c! 1) ) ) )(inv-f c! n! v1! v2! v3! )))
(constraint (=> (inv-f c n v1 v2 v3 )(not (or (and (not (= c n)) (or (< c 0) (> c n) ) ) (and (= c n) (> n (- 1)) ) ))))
(check-synth)

